c *********************************
c * Circuit generated by BenCGen
c *
c * CarrySaveAdder_112_112_112_112_113
c *
c * Ports with 1 gate(s): 2
c * Ports with 2 gate(s): 561
c * Total gates: 563
c *********************************
p cnf 899 1911
1 563 0
-1 -563 0
1 -562 0
563 -562 0
-1 -563 562 0
562 -449 0
-562 449 0
1 113 -564 0
-1 113 564 0
1 -113 564 0
-1 -113 -564 0
564 225 -337 0
-564 225 337 0
564 -225 337 0
-564 -225 -337 0
225 -565 0
564 -565 0
-225 -564 565 0
113 -566 0
1 -566 0
-113 -1 566 0
-565 450 0
-566 450 0
565 566 -450 0
2 114 -567 0
-2 114 567 0
2 -114 567 0
-2 -114 -567 0
567 226 -338 0
-567 226 338 0
567 -226 338 0
-567 -226 -338 0
226 -568 0
567 -568 0
-226 -567 568 0
114 -569 0
2 -569 0
-114 -2 569 0
-568 451 0
-569 451 0
568 569 -451 0
3 115 -570 0
-3 115 570 0
3 -115 570 0
-3 -115 -570 0
570 227 -339 0
-570 227 339 0
570 -227 339 0
-570 -227 -339 0
227 -571 0
570 -571 0
-227 -570 571 0
115 -572 0
3 -572 0
-115 -3 572 0
-571 452 0
-572 452 0
571 572 -452 0
4 116 -573 0
-4 116 573 0
4 -116 573 0
-4 -116 -573 0
573 228 -340 0
-573 228 340 0
573 -228 340 0
-573 -228 -340 0
228 -574 0
573 -574 0
-228 -573 574 0
116 -575 0
4 -575 0
-116 -4 575 0
-574 453 0
-575 453 0
574 575 -453 0
5 117 -576 0
-5 117 576 0
5 -117 576 0
-5 -117 -576 0
576 229 -341 0
-576 229 341 0
576 -229 341 0
-576 -229 -341 0
229 -577 0
576 -577 0
-229 -576 577 0
117 -578 0
5 -578 0
-117 -5 578 0
-577 454 0
-578 454 0
577 578 -454 0
6 118 -579 0
-6 118 579 0
6 -118 579 0
-6 -118 -579 0
579 230 -342 0
-579 230 342 0
579 -230 342 0
-579 -230 -342 0
230 -580 0
579 -580 0
-230 -579 580 0
118 -581 0
6 -581 0
-118 -6 581 0
-580 455 0
-581 455 0
580 581 -455 0
7 119 -582 0
-7 119 582 0
7 -119 582 0
-7 -119 -582 0
582 231 -343 0
-582 231 343 0
582 -231 343 0
-582 -231 -343 0
231 -583 0
582 -583 0
-231 -582 583 0
119 -584 0
7 -584 0
-119 -7 584 0
-583 456 0
-584 456 0
583 584 -456 0
8 120 -585 0
-8 120 585 0
8 -120 585 0
-8 -120 -585 0
585 232 -344 0
-585 232 344 0
585 -232 344 0
-585 -232 -344 0
232 -586 0
585 -586 0
-232 -585 586 0
120 -587 0
8 -587 0
-120 -8 587 0
-586 457 0
-587 457 0
586 587 -457 0
9 121 -588 0
-9 121 588 0
9 -121 588 0
-9 -121 -588 0
588 233 -345 0
-588 233 345 0
588 -233 345 0
-588 -233 -345 0
233 -589 0
588 -589 0
-233 -588 589 0
121 -590 0
9 -590 0
-121 -9 590 0
-589 458 0
-590 458 0
589 590 -458 0
10 122 -591 0
-10 122 591 0
10 -122 591 0
-10 -122 -591 0
591 234 -346 0
-591 234 346 0
591 -234 346 0
-591 -234 -346 0
234 -592 0
591 -592 0
-234 -591 592 0
122 -593 0
10 -593 0
-122 -10 593 0
-592 459 0
-593 459 0
592 593 -459 0
11 123 -594 0
-11 123 594 0
11 -123 594 0
-11 -123 -594 0
594 235 -347 0
-594 235 347 0
594 -235 347 0
-594 -235 -347 0
235 -595 0
594 -595 0
-235 -594 595 0
123 -596 0
11 -596 0
-123 -11 596 0
-595 460 0
-596 460 0
595 596 -460 0
12 124 -597 0
-12 124 597 0
12 -124 597 0
-12 -124 -597 0
597 236 -348 0
-597 236 348 0
597 -236 348 0
-597 -236 -348 0
236 -598 0
597 -598 0
-236 -597 598 0
124 -599 0
12 -599 0
-124 -12 599 0
-598 461 0
-599 461 0
598 599 -461 0
13 125 -600 0
-13 125 600 0
13 -125 600 0
-13 -125 -600 0
600 237 -349 0
-600 237 349 0
600 -237 349 0
-600 -237 -349 0
237 -601 0
600 -601 0
-237 -600 601 0
125 -602 0
13 -602 0
-125 -13 602 0
-601 462 0
-602 462 0
601 602 -462 0
14 126 -603 0
-14 126 603 0
14 -126 603 0
-14 -126 -603 0
603 238 -350 0
-603 238 350 0
603 -238 350 0
-603 -238 -350 0
238 -604 0
603 -604 0
-238 -603 604 0
126 -605 0
14 -605 0
-126 -14 605 0
-604 463 0
-605 463 0
604 605 -463 0
15 127 -606 0
-15 127 606 0
15 -127 606 0
-15 -127 -606 0
606 239 -351 0
-606 239 351 0
606 -239 351 0
-606 -239 -351 0
239 -607 0
606 -607 0
-239 -606 607 0
127 -608 0
15 -608 0
-127 -15 608 0
-607 464 0
-608 464 0
607 608 -464 0
16 128 -609 0
-16 128 609 0
16 -128 609 0
-16 -128 -609 0
609 240 -352 0
-609 240 352 0
609 -240 352 0
-609 -240 -352 0
240 -610 0
609 -610 0
-240 -609 610 0
128 -611 0
16 -611 0
-128 -16 611 0
-610 465 0
-611 465 0
610 611 -465 0
17 129 -612 0
-17 129 612 0
17 -129 612 0
-17 -129 -612 0
612 241 -353 0
-612 241 353 0
612 -241 353 0
-612 -241 -353 0
241 -613 0
612 -613 0
-241 -612 613 0
129 -614 0
17 -614 0
-129 -17 614 0
-613 466 0
-614 466 0
613 614 -466 0
18 130 -615 0
-18 130 615 0
18 -130 615 0
-18 -130 -615 0
615 242 -354 0
-615 242 354 0
615 -242 354 0
-615 -242 -354 0
242 -616 0
615 -616 0
-242 -615 616 0
130 -617 0
18 -617 0
-130 -18 617 0
-616 467 0
-617 467 0
616 617 -467 0
19 131 -618 0
-19 131 618 0
19 -131 618 0
-19 -131 -618 0
618 243 -355 0
-618 243 355 0
618 -243 355 0
-618 -243 -355 0
243 -619 0
618 -619 0
-243 -618 619 0
131 -620 0
19 -620 0
-131 -19 620 0
-619 468 0
-620 468 0
619 620 -468 0
20 132 -621 0
-20 132 621 0
20 -132 621 0
-20 -132 -621 0
621 244 -356 0
-621 244 356 0
621 -244 356 0
-621 -244 -356 0
244 -622 0
621 -622 0
-244 -621 622 0
132 -623 0
20 -623 0
-132 -20 623 0
-622 469 0
-623 469 0
622 623 -469 0
21 133 -624 0
-21 133 624 0
21 -133 624 0
-21 -133 -624 0
624 245 -357 0
-624 245 357 0
624 -245 357 0
-624 -245 -357 0
245 -625 0
624 -625 0
-245 -624 625 0
133 -626 0
21 -626 0
-133 -21 626 0
-625 470 0
-626 470 0
625 626 -470 0
22 134 -627 0
-22 134 627 0
22 -134 627 0
-22 -134 -627 0
627 246 -358 0
-627 246 358 0
627 -246 358 0
-627 -246 -358 0
246 -628 0
627 -628 0
-246 -627 628 0
134 -629 0
22 -629 0
-134 -22 629 0
-628 471 0
-629 471 0
628 629 -471 0
23 135 -630 0
-23 135 630 0
23 -135 630 0
-23 -135 -630 0
630 247 -359 0
-630 247 359 0
630 -247 359 0
-630 -247 -359 0
247 -631 0
630 -631 0
-247 -630 631 0
135 -632 0
23 -632 0
-135 -23 632 0
-631 472 0
-632 472 0
631 632 -472 0
24 136 -633 0
-24 136 633 0
24 -136 633 0
-24 -136 -633 0
633 248 -360 0
-633 248 360 0
633 -248 360 0
-633 -248 -360 0
248 -634 0
633 -634 0
-248 -633 634 0
136 -635 0
24 -635 0
-136 -24 635 0
-634 473 0
-635 473 0
634 635 -473 0
25 137 -636 0
-25 137 636 0
25 -137 636 0
-25 -137 -636 0
636 249 -361 0
-636 249 361 0
636 -249 361 0
-636 -249 -361 0
249 -637 0
636 -637 0
-249 -636 637 0
137 -638 0
25 -638 0
-137 -25 638 0
-637 474 0
-638 474 0
637 638 -474 0
26 138 -639 0
-26 138 639 0
26 -138 639 0
-26 -138 -639 0
639 250 -362 0
-639 250 362 0
639 -250 362 0
-639 -250 -362 0
250 -640 0
639 -640 0
-250 -639 640 0
138 -641 0
26 -641 0
-138 -26 641 0
-640 475 0
-641 475 0
640 641 -475 0
27 139 -642 0
-27 139 642 0
27 -139 642 0
-27 -139 -642 0
642 251 -363 0
-642 251 363 0
642 -251 363 0
-642 -251 -363 0
251 -643 0
642 -643 0
-251 -642 643 0
139 -644 0
27 -644 0
-139 -27 644 0
-643 476 0
-644 476 0
643 644 -476 0
28 140 -645 0
-28 140 645 0
28 -140 645 0
-28 -140 -645 0
645 252 -364 0
-645 252 364 0
645 -252 364 0
-645 -252 -364 0
252 -646 0
645 -646 0
-252 -645 646 0
140 -647 0
28 -647 0
-140 -28 647 0
-646 477 0
-647 477 0
646 647 -477 0
29 141 -648 0
-29 141 648 0
29 -141 648 0
-29 -141 -648 0
648 253 -365 0
-648 253 365 0
648 -253 365 0
-648 -253 -365 0
253 -649 0
648 -649 0
-253 -648 649 0
141 -650 0
29 -650 0
-141 -29 650 0
-649 478 0
-650 478 0
649 650 -478 0
30 142 -651 0
-30 142 651 0
30 -142 651 0
-30 -142 -651 0
651 254 -366 0
-651 254 366 0
651 -254 366 0
-651 -254 -366 0
254 -652 0
651 -652 0
-254 -651 652 0
142 -653 0
30 -653 0
-142 -30 653 0
-652 479 0
-653 479 0
652 653 -479 0
31 143 -654 0
-31 143 654 0
31 -143 654 0
-31 -143 -654 0
654 255 -367 0
-654 255 367 0
654 -255 367 0
-654 -255 -367 0
255 -655 0
654 -655 0
-255 -654 655 0
143 -656 0
31 -656 0
-143 -31 656 0
-655 480 0
-656 480 0
655 656 -480 0
32 144 -657 0
-32 144 657 0
32 -144 657 0
-32 -144 -657 0
657 256 -368 0
-657 256 368 0
657 -256 368 0
-657 -256 -368 0
256 -658 0
657 -658 0
-256 -657 658 0
144 -659 0
32 -659 0
-144 -32 659 0
-658 481 0
-659 481 0
658 659 -481 0
33 145 -660 0
-33 145 660 0
33 -145 660 0
-33 -145 -660 0
660 257 -369 0
-660 257 369 0
660 -257 369 0
-660 -257 -369 0
257 -661 0
660 -661 0
-257 -660 661 0
145 -662 0
33 -662 0
-145 -33 662 0
-661 482 0
-662 482 0
661 662 -482 0
34 146 -663 0
-34 146 663 0
34 -146 663 0
-34 -146 -663 0
663 258 -370 0
-663 258 370 0
663 -258 370 0
-663 -258 -370 0
258 -664 0
663 -664 0
-258 -663 664 0
146 -665 0
34 -665 0
-146 -34 665 0
-664 483 0
-665 483 0
664 665 -483 0
35 147 -666 0
-35 147 666 0
35 -147 666 0
-35 -147 -666 0
666 259 -371 0
-666 259 371 0
666 -259 371 0
-666 -259 -371 0
259 -667 0
666 -667 0
-259 -666 667 0
147 -668 0
35 -668 0
-147 -35 668 0
-667 484 0
-668 484 0
667 668 -484 0
36 148 -669 0
-36 148 669 0
36 -148 669 0
-36 -148 -669 0
669 260 -372 0
-669 260 372 0
669 -260 372 0
-669 -260 -372 0
260 -670 0
669 -670 0
-260 -669 670 0
148 -671 0
36 -671 0
-148 -36 671 0
-670 485 0
-671 485 0
670 671 -485 0
37 149 -672 0
-37 149 672 0
37 -149 672 0
-37 -149 -672 0
672 261 -373 0
-672 261 373 0
672 -261 373 0
-672 -261 -373 0
261 -673 0
672 -673 0
-261 -672 673 0
149 -674 0
37 -674 0
-149 -37 674 0
-673 486 0
-674 486 0
673 674 -486 0
38 150 -675 0
-38 150 675 0
38 -150 675 0
-38 -150 -675 0
675 262 -374 0
-675 262 374 0
675 -262 374 0
-675 -262 -374 0
262 -676 0
675 -676 0
-262 -675 676 0
150 -677 0
38 -677 0
-150 -38 677 0
-676 487 0
-677 487 0
676 677 -487 0
39 151 -678 0
-39 151 678 0
39 -151 678 0
-39 -151 -678 0
678 263 -375 0
-678 263 375 0
678 -263 375 0
-678 -263 -375 0
263 -679 0
678 -679 0
-263 -678 679 0
151 -680 0
39 -680 0
-151 -39 680 0
-679 488 0
-680 488 0
679 680 -488 0
40 152 -681 0
-40 152 681 0
40 -152 681 0
-40 -152 -681 0
681 264 -376 0
-681 264 376 0
681 -264 376 0
-681 -264 -376 0
264 -682 0
681 -682 0
-264 -681 682 0
152 -683 0
40 -683 0
-152 -40 683 0
-682 489 0
-683 489 0
682 683 -489 0
41 153 -684 0
-41 153 684 0
41 -153 684 0
-41 -153 -684 0
684 265 -377 0
-684 265 377 0
684 -265 377 0
-684 -265 -377 0
265 -685 0
684 -685 0
-265 -684 685 0
153 -686 0
41 -686 0
-153 -41 686 0
-685 490 0
-686 490 0
685 686 -490 0
42 154 -687 0
-42 154 687 0
42 -154 687 0
-42 -154 -687 0
687 266 -378 0
-687 266 378 0
687 -266 378 0
-687 -266 -378 0
266 -688 0
687 -688 0
-266 -687 688 0
154 -689 0
42 -689 0
-154 -42 689 0
-688 491 0
-689 491 0
688 689 -491 0
43 155 -690 0
-43 155 690 0
43 -155 690 0
-43 -155 -690 0
690 267 -379 0
-690 267 379 0
690 -267 379 0
-690 -267 -379 0
267 -691 0
690 -691 0
-267 -690 691 0
155 -692 0
43 -692 0
-155 -43 692 0
-691 492 0
-692 492 0
691 692 -492 0
44 156 -693 0
-44 156 693 0
44 -156 693 0
-44 -156 -693 0
693 268 -380 0
-693 268 380 0
693 -268 380 0
-693 -268 -380 0
268 -694 0
693 -694 0
-268 -693 694 0
156 -695 0
44 -695 0
-156 -44 695 0
-694 493 0
-695 493 0
694 695 -493 0
45 157 -696 0
-45 157 696 0
45 -157 696 0
-45 -157 -696 0
696 269 -381 0
-696 269 381 0
696 -269 381 0
-696 -269 -381 0
269 -697 0
696 -697 0
-269 -696 697 0
157 -698 0
45 -698 0
-157 -45 698 0
-697 494 0
-698 494 0
697 698 -494 0
46 158 -699 0
-46 158 699 0
46 -158 699 0
-46 -158 -699 0
699 270 -382 0
-699 270 382 0
699 -270 382 0
-699 -270 -382 0
270 -700 0
699 -700 0
-270 -699 700 0
158 -701 0
46 -701 0
-158 -46 701 0
-700 495 0
-701 495 0
700 701 -495 0
47 159 -702 0
-47 159 702 0
47 -159 702 0
-47 -159 -702 0
702 271 -383 0
-702 271 383 0
702 -271 383 0
-702 -271 -383 0
271 -703 0
702 -703 0
-271 -702 703 0
159 -704 0
47 -704 0
-159 -47 704 0
-703 496 0
-704 496 0
703 704 -496 0
48 160 -705 0
-48 160 705 0
48 -160 705 0
-48 -160 -705 0
705 272 -384 0
-705 272 384 0
705 -272 384 0
-705 -272 -384 0
272 -706 0
705 -706 0
-272 -705 706 0
160 -707 0
48 -707 0
-160 -48 707 0
-706 497 0
-707 497 0
706 707 -497 0
49 161 -708 0
-49 161 708 0
49 -161 708 0
-49 -161 -708 0
708 273 -385 0
-708 273 385 0
708 -273 385 0
-708 -273 -385 0
273 -709 0
708 -709 0
-273 -708 709 0
161 -710 0
49 -710 0
-161 -49 710 0
-709 498 0
-710 498 0
709 710 -498 0
50 162 -711 0
-50 162 711 0
50 -162 711 0
-50 -162 -711 0
711 274 -386 0
-711 274 386 0
711 -274 386 0
-711 -274 -386 0
274 -712 0
711 -712 0
-274 -711 712 0
162 -713 0
50 -713 0
-162 -50 713 0
-712 499 0
-713 499 0
712 713 -499 0
51 163 -714 0
-51 163 714 0
51 -163 714 0
-51 -163 -714 0
714 275 -387 0
-714 275 387 0
714 -275 387 0
-714 -275 -387 0
275 -715 0
714 -715 0
-275 -714 715 0
163 -716 0
51 -716 0
-163 -51 716 0
-715 500 0
-716 500 0
715 716 -500 0
52 164 -717 0
-52 164 717 0
52 -164 717 0
-52 -164 -717 0
717 276 -388 0
-717 276 388 0
717 -276 388 0
-717 -276 -388 0
276 -718 0
717 -718 0
-276 -717 718 0
164 -719 0
52 -719 0
-164 -52 719 0
-718 501 0
-719 501 0
718 719 -501 0
53 165 -720 0
-53 165 720 0
53 -165 720 0
-53 -165 -720 0
720 277 -389 0
-720 277 389 0
720 -277 389 0
-720 -277 -389 0
277 -721 0
720 -721 0
-277 -720 721 0
165 -722 0
53 -722 0
-165 -53 722 0
-721 502 0
-722 502 0
721 722 -502 0
54 166 -723 0
-54 166 723 0
54 -166 723 0
-54 -166 -723 0
723 278 -390 0
-723 278 390 0
723 -278 390 0
-723 -278 -390 0
278 -724 0
723 -724 0
-278 -723 724 0
166 -725 0
54 -725 0
-166 -54 725 0
-724 503 0
-725 503 0
724 725 -503 0
55 167 -726 0
-55 167 726 0
55 -167 726 0
-55 -167 -726 0
726 279 -391 0
-726 279 391 0
726 -279 391 0
-726 -279 -391 0
279 -727 0
726 -727 0
-279 -726 727 0
167 -728 0
55 -728 0
-167 -55 728 0
-727 504 0
-728 504 0
727 728 -504 0
56 168 -729 0
-56 168 729 0
56 -168 729 0
-56 -168 -729 0
729 280 -392 0
-729 280 392 0
729 -280 392 0
-729 -280 -392 0
280 -730 0
729 -730 0
-280 -729 730 0
168 -731 0
56 -731 0
-168 -56 731 0
-730 505 0
-731 505 0
730 731 -505 0
57 169 -732 0
-57 169 732 0
57 -169 732 0
-57 -169 -732 0
732 281 -393 0
-732 281 393 0
732 -281 393 0
-732 -281 -393 0
281 -733 0
732 -733 0
-281 -732 733 0
169 -734 0
57 -734 0
-169 -57 734 0
-733 506 0
-734 506 0
733 734 -506 0
58 170 -735 0
-58 170 735 0
58 -170 735 0
-58 -170 -735 0
735 282 -394 0
-735 282 394 0
735 -282 394 0
-735 -282 -394 0
282 -736 0
735 -736 0
-282 -735 736 0
170 -737 0
58 -737 0
-170 -58 737 0
-736 507 0
-737 507 0
736 737 -507 0
59 171 -738 0
-59 171 738 0
59 -171 738 0
-59 -171 -738 0
738 283 -395 0
-738 283 395 0
738 -283 395 0
-738 -283 -395 0
283 -739 0
738 -739 0
-283 -738 739 0
171 -740 0
59 -740 0
-171 -59 740 0
-739 508 0
-740 508 0
739 740 -508 0
60 172 -741 0
-60 172 741 0
60 -172 741 0
-60 -172 -741 0
741 284 -396 0
-741 284 396 0
741 -284 396 0
-741 -284 -396 0
284 -742 0
741 -742 0
-284 -741 742 0
172 -743 0
60 -743 0
-172 -60 743 0
-742 509 0
-743 509 0
742 743 -509 0
61 173 -744 0
-61 173 744 0
61 -173 744 0
-61 -173 -744 0
744 285 -397 0
-744 285 397 0
744 -285 397 0
-744 -285 -397 0
285 -745 0
744 -745 0
-285 -744 745 0
173 -746 0
61 -746 0
-173 -61 746 0
-745 510 0
-746 510 0
745 746 -510 0
62 174 -747 0
-62 174 747 0
62 -174 747 0
-62 -174 -747 0
747 286 -398 0
-747 286 398 0
747 -286 398 0
-747 -286 -398 0
286 -748 0
747 -748 0
-286 -747 748 0
174 -749 0
62 -749 0
-174 -62 749 0
-748 511 0
-749 511 0
748 749 -511 0
63 175 -750 0
-63 175 750 0
63 -175 750 0
-63 -175 -750 0
750 287 -399 0
-750 287 399 0
750 -287 399 0
-750 -287 -399 0
287 -751 0
750 -751 0
-287 -750 751 0
175 -752 0
63 -752 0
-175 -63 752 0
-751 512 0
-752 512 0
751 752 -512 0
64 176 -753 0
-64 176 753 0
64 -176 753 0
-64 -176 -753 0
753 288 -400 0
-753 288 400 0
753 -288 400 0
-753 -288 -400 0
288 -754 0
753 -754 0
-288 -753 754 0
176 -755 0
64 -755 0
-176 -64 755 0
-754 513 0
-755 513 0
754 755 -513 0
65 177 -756 0
-65 177 756 0
65 -177 756 0
-65 -177 -756 0
756 289 -401 0
-756 289 401 0
756 -289 401 0
-756 -289 -401 0
289 -757 0
756 -757 0
-289 -756 757 0
177 -758 0
65 -758 0
-177 -65 758 0
-757 514 0
-758 514 0
757 758 -514 0
66 178 -759 0
-66 178 759 0
66 -178 759 0
-66 -178 -759 0
759 290 -402 0
-759 290 402 0
759 -290 402 0
-759 -290 -402 0
290 -760 0
759 -760 0
-290 -759 760 0
178 -761 0
66 -761 0
-178 -66 761 0
-760 515 0
-761 515 0
760 761 -515 0
67 179 -762 0
-67 179 762 0
67 -179 762 0
-67 -179 -762 0
762 291 -403 0
-762 291 403 0
762 -291 403 0
-762 -291 -403 0
291 -763 0
762 -763 0
-291 -762 763 0
179 -764 0
67 -764 0
-179 -67 764 0
-763 516 0
-764 516 0
763 764 -516 0
68 180 -765 0
-68 180 765 0
68 -180 765 0
-68 -180 -765 0
765 292 -404 0
-765 292 404 0
765 -292 404 0
-765 -292 -404 0
292 -766 0
765 -766 0
-292 -765 766 0
180 -767 0
68 -767 0
-180 -68 767 0
-766 517 0
-767 517 0
766 767 -517 0
69 181 -768 0
-69 181 768 0
69 -181 768 0
-69 -181 -768 0
768 293 -405 0
-768 293 405 0
768 -293 405 0
-768 -293 -405 0
293 -769 0
768 -769 0
-293 -768 769 0
181 -770 0
69 -770 0
-181 -69 770 0
-769 518 0
-770 518 0
769 770 -518 0
70 182 -771 0
-70 182 771 0
70 -182 771 0
-70 -182 -771 0
771 294 -406 0
-771 294 406 0
771 -294 406 0
-771 -294 -406 0
294 -772 0
771 -772 0
-294 -771 772 0
182 -773 0
70 -773 0
-182 -70 773 0
-772 519 0
-773 519 0
772 773 -519 0
71 183 -774 0
-71 183 774 0
71 -183 774 0
-71 -183 -774 0
774 295 -407 0
-774 295 407 0
774 -295 407 0
-774 -295 -407 0
295 -775 0
774 -775 0
-295 -774 775 0
183 -776 0
71 -776 0
-183 -71 776 0
-775 520 0
-776 520 0
775 776 -520 0
72 184 -777 0
-72 184 777 0
72 -184 777 0
-72 -184 -777 0
777 296 -408 0
-777 296 408 0
777 -296 408 0
-777 -296 -408 0
296 -778 0
777 -778 0
-296 -777 778 0
184 -779 0
72 -779 0
-184 -72 779 0
-778 521 0
-779 521 0
778 779 -521 0
73 185 -780 0
-73 185 780 0
73 -185 780 0
-73 -185 -780 0
780 297 -409 0
-780 297 409 0
780 -297 409 0
-780 -297 -409 0
297 -781 0
780 -781 0
-297 -780 781 0
185 -782 0
73 -782 0
-185 -73 782 0
-781 522 0
-782 522 0
781 782 -522 0
74 186 -783 0
-74 186 783 0
74 -186 783 0
-74 -186 -783 0
783 298 -410 0
-783 298 410 0
783 -298 410 0
-783 -298 -410 0
298 -784 0
783 -784 0
-298 -783 784 0
186 -785 0
74 -785 0
-186 -74 785 0
-784 523 0
-785 523 0
784 785 -523 0
75 187 -786 0
-75 187 786 0
75 -187 786 0
-75 -187 -786 0
786 299 -411 0
-786 299 411 0
786 -299 411 0
-786 -299 -411 0
299 -787 0
786 -787 0
-299 -786 787 0
187 -788 0
75 -788 0
-187 -75 788 0
-787 524 0
-788 524 0
787 788 -524 0
76 188 -789 0
-76 188 789 0
76 -188 789 0
-76 -188 -789 0
789 300 -412 0
-789 300 412 0
789 -300 412 0
-789 -300 -412 0
300 -790 0
789 -790 0
-300 -789 790 0
188 -791 0
76 -791 0
-188 -76 791 0
-790 525 0
-791 525 0
790 791 -525 0
77 189 -792 0
-77 189 792 0
77 -189 792 0
-77 -189 -792 0
792 301 -413 0
-792 301 413 0
792 -301 413 0
-792 -301 -413 0
301 -793 0
792 -793 0
-301 -792 793 0
189 -794 0
77 -794 0
-189 -77 794 0
-793 526 0
-794 526 0
793 794 -526 0
78 190 -795 0
-78 190 795 0
78 -190 795 0
-78 -190 -795 0
795 302 -414 0
-795 302 414 0
795 -302 414 0
-795 -302 -414 0
302 -796 0
795 -796 0
-302 -795 796 0
190 -797 0
78 -797 0
-190 -78 797 0
-796 527 0
-797 527 0
796 797 -527 0
79 191 -798 0
-79 191 798 0
79 -191 798 0
-79 -191 -798 0
798 303 -415 0
-798 303 415 0
798 -303 415 0
-798 -303 -415 0
303 -799 0
798 -799 0
-303 -798 799 0
191 -800 0
79 -800 0
-191 -79 800 0
-799 528 0
-800 528 0
799 800 -528 0
80 192 -801 0
-80 192 801 0
80 -192 801 0
-80 -192 -801 0
801 304 -416 0
-801 304 416 0
801 -304 416 0
-801 -304 -416 0
304 -802 0
801 -802 0
-304 -801 802 0
192 -803 0
80 -803 0
-192 -80 803 0
-802 529 0
-803 529 0
802 803 -529 0
81 193 -804 0
-81 193 804 0
81 -193 804 0
-81 -193 -804 0
804 305 -417 0
-804 305 417 0
804 -305 417 0
-804 -305 -417 0
305 -805 0
804 -805 0
-305 -804 805 0
193 -806 0
81 -806 0
-193 -81 806 0
-805 530 0
-806 530 0
805 806 -530 0
82 194 -807 0
-82 194 807 0
82 -194 807 0
-82 -194 -807 0
807 306 -418 0
-807 306 418 0
807 -306 418 0
-807 -306 -418 0
306 -808 0
807 -808 0
-306 -807 808 0
194 -809 0
82 -809 0
-194 -82 809 0
-808 531 0
-809 531 0
808 809 -531 0
83 195 -810 0
-83 195 810 0
83 -195 810 0
-83 -195 -810 0
810 307 -419 0
-810 307 419 0
810 -307 419 0
-810 -307 -419 0
307 -811 0
810 -811 0
-307 -810 811 0
195 -812 0
83 -812 0
-195 -83 812 0
-811 532 0
-812 532 0
811 812 -532 0
84 196 -813 0
-84 196 813 0
84 -196 813 0
-84 -196 -813 0
813 308 -420 0
-813 308 420 0
813 -308 420 0
-813 -308 -420 0
308 -814 0
813 -814 0
-308 -813 814 0
196 -815 0
84 -815 0
-196 -84 815 0
-814 533 0
-815 533 0
814 815 -533 0
85 197 -816 0
-85 197 816 0
85 -197 816 0
-85 -197 -816 0
816 309 -421 0
-816 309 421 0
816 -309 421 0
-816 -309 -421 0
309 -817 0
816 -817 0
-309 -816 817 0
197 -818 0
85 -818 0
-197 -85 818 0
-817 534 0
-818 534 0
817 818 -534 0
86 198 -819 0
-86 198 819 0
86 -198 819 0
-86 -198 -819 0
819 310 -422 0
-819 310 422 0
819 -310 422 0
-819 -310 -422 0
310 -820 0
819 -820 0
-310 -819 820 0
198 -821 0
86 -821 0
-198 -86 821 0
-820 535 0
-821 535 0
820 821 -535 0
87 199 -822 0
-87 199 822 0
87 -199 822 0
-87 -199 -822 0
822 311 -423 0
-822 311 423 0
822 -311 423 0
-822 -311 -423 0
311 -823 0
822 -823 0
-311 -822 823 0
199 -824 0
87 -824 0
-199 -87 824 0
-823 536 0
-824 536 0
823 824 -536 0
88 200 -825 0
-88 200 825 0
88 -200 825 0
-88 -200 -825 0
825 312 -424 0
-825 312 424 0
825 -312 424 0
-825 -312 -424 0
312 -826 0
825 -826 0
-312 -825 826 0
200 -827 0
88 -827 0
-200 -88 827 0
-826 537 0
-827 537 0
826 827 -537 0
89 201 -828 0
-89 201 828 0
89 -201 828 0
-89 -201 -828 0
828 313 -425 0
-828 313 425 0
828 -313 425 0
-828 -313 -425 0
313 -829 0
828 -829 0
-313 -828 829 0
201 -830 0
89 -830 0
-201 -89 830 0
-829 538 0
-830 538 0
829 830 -538 0
90 202 -831 0
-90 202 831 0
90 -202 831 0
-90 -202 -831 0
831 314 -426 0
-831 314 426 0
831 -314 426 0
-831 -314 -426 0
314 -832 0
831 -832 0
-314 -831 832 0
202 -833 0
90 -833 0
-202 -90 833 0
-832 539 0
-833 539 0
832 833 -539 0
91 203 -834 0
-91 203 834 0
91 -203 834 0
-91 -203 -834 0
834 315 -427 0
-834 315 427 0
834 -315 427 0
-834 -315 -427 0
315 -835 0
834 -835 0
-315 -834 835 0
203 -836 0
91 -836 0
-203 -91 836 0
-835 540 0
-836 540 0
835 836 -540 0
92 204 -837 0
-92 204 837 0
92 -204 837 0
-92 -204 -837 0
837 316 -428 0
-837 316 428 0
837 -316 428 0
-837 -316 -428 0
316 -838 0
837 -838 0
-316 -837 838 0
204 -839 0
92 -839 0
-204 -92 839 0
-838 541 0
-839 541 0
838 839 -541 0
93 205 -840 0
-93 205 840 0
93 -205 840 0
-93 -205 -840 0
840 317 -429 0
-840 317 429 0
840 -317 429 0
-840 -317 -429 0
317 -841 0
840 -841 0
-317 -840 841 0
205 -842 0
93 -842 0
-205 -93 842 0
-841 542 0
-842 542 0
841 842 -542 0
94 206 -843 0
-94 206 843 0
94 -206 843 0
-94 -206 -843 0
843 318 -430 0
-843 318 430 0
843 -318 430 0
-843 -318 -430 0
318 -844 0
843 -844 0
-318 -843 844 0
206 -845 0
94 -845 0
-206 -94 845 0
-844 543 0
-845 543 0
844 845 -543 0
95 207 -846 0
-95 207 846 0
95 -207 846 0
-95 -207 -846 0
846 319 -431 0
-846 319 431 0
846 -319 431 0
-846 -319 -431 0
319 -847 0
846 -847 0
-319 -846 847 0
207 -848 0
95 -848 0
-207 -95 848 0
-847 544 0
-848 544 0
847 848 -544 0
96 208 -849 0
-96 208 849 0
96 -208 849 0
-96 -208 -849 0
849 320 -432 0
-849 320 432 0
849 -320 432 0
-849 -320 -432 0
320 -850 0
849 -850 0
-320 -849 850 0
208 -851 0
96 -851 0
-208 -96 851 0
-850 545 0
-851 545 0
850 851 -545 0
97 209 -852 0
-97 209 852 0
97 -209 852 0
-97 -209 -852 0
852 321 -433 0
-852 321 433 0
852 -321 433 0
-852 -321 -433 0
321 -853 0
852 -853 0
-321 -852 853 0
209 -854 0
97 -854 0
-209 -97 854 0
-853 546 0
-854 546 0
853 854 -546 0
98 210 -855 0
-98 210 855 0
98 -210 855 0
-98 -210 -855 0
855 322 -434 0
-855 322 434 0
855 -322 434 0
-855 -322 -434 0
322 -856 0
855 -856 0
-322 -855 856 0
210 -857 0
98 -857 0
-210 -98 857 0
-856 547 0
-857 547 0
856 857 -547 0
99 211 -858 0
-99 211 858 0
99 -211 858 0
-99 -211 -858 0
858 323 -435 0
-858 323 435 0
858 -323 435 0
-858 -323 -435 0
323 -859 0
858 -859 0
-323 -858 859 0
211 -860 0
99 -860 0
-211 -99 860 0
-859 548 0
-860 548 0
859 860 -548 0
100 212 -861 0
-100 212 861 0
100 -212 861 0
-100 -212 -861 0
861 324 -436 0
-861 324 436 0
861 -324 436 0
-861 -324 -436 0
324 -862 0
861 -862 0
-324 -861 862 0
212 -863 0
100 -863 0
-212 -100 863 0
-862 549 0
-863 549 0
862 863 -549 0
101 213 -864 0
-101 213 864 0
101 -213 864 0
-101 -213 -864 0
864 325 -437 0
-864 325 437 0
864 -325 437 0
-864 -325 -437 0
325 -865 0
864 -865 0
-325 -864 865 0
213 -866 0
101 -866 0
-213 -101 866 0
-865 550 0
-866 550 0
865 866 -550 0
102 214 -867 0
-102 214 867 0
102 -214 867 0
-102 -214 -867 0
867 326 -438 0
-867 326 438 0
867 -326 438 0
-867 -326 -438 0
326 -868 0
867 -868 0
-326 -867 868 0
214 -869 0
102 -869 0
-214 -102 869 0
-868 551 0
-869 551 0
868 869 -551 0
103 215 -870 0
-103 215 870 0
103 -215 870 0
-103 -215 -870 0
870 327 -439 0
-870 327 439 0
870 -327 439 0
-870 -327 -439 0
327 -871 0
870 -871 0
-327 -870 871 0
215 -872 0
103 -872 0
-215 -103 872 0
-871 552 0
-872 552 0
871 872 -552 0
104 216 -873 0
-104 216 873 0
104 -216 873 0
-104 -216 -873 0
873 328 -440 0
-873 328 440 0
873 -328 440 0
-873 -328 -440 0
328 -874 0
873 -874 0
-328 -873 874 0
216 -875 0
104 -875 0
-216 -104 875 0
-874 553 0
-875 553 0
874 875 -553 0
105 217 -876 0
-105 217 876 0
105 -217 876 0
-105 -217 -876 0
876 329 -441 0
-876 329 441 0
876 -329 441 0
-876 -329 -441 0
329 -877 0
876 -877 0
-329 -876 877 0
217 -878 0
105 -878 0
-217 -105 878 0
-877 554 0
-878 554 0
877 878 -554 0
106 218 -879 0
-106 218 879 0
106 -218 879 0
-106 -218 -879 0
879 330 -442 0
-879 330 442 0
879 -330 442 0
-879 -330 -442 0
330 -880 0
879 -880 0
-330 -879 880 0
218 -881 0
106 -881 0
-218 -106 881 0
-880 555 0
-881 555 0
880 881 -555 0
107 219 -882 0
-107 219 882 0
107 -219 882 0
-107 -219 -882 0
882 331 -443 0
-882 331 443 0
882 -331 443 0
-882 -331 -443 0
331 -883 0
882 -883 0
-331 -882 883 0
219 -884 0
107 -884 0
-219 -107 884 0
-883 556 0
-884 556 0
883 884 -556 0
108 220 -885 0
-108 220 885 0
108 -220 885 0
-108 -220 -885 0
885 332 -444 0
-885 332 444 0
885 -332 444 0
-885 -332 -444 0
332 -886 0
885 -886 0
-332 -885 886 0
220 -887 0
108 -887 0
-220 -108 887 0
-886 557 0
-887 557 0
886 887 -557 0
109 221 -888 0
-109 221 888 0
109 -221 888 0
-109 -221 -888 0
888 333 -445 0
-888 333 445 0
888 -333 445 0
-888 -333 -445 0
333 -889 0
888 -889 0
-333 -888 889 0
221 -890 0
109 -890 0
-221 -109 890 0
-889 558 0
-890 558 0
889 890 -558 0
110 222 -891 0
-110 222 891 0
110 -222 891 0
-110 -222 -891 0
891 334 -446 0
-891 334 446 0
891 -334 446 0
-891 -334 -446 0
334 -892 0
891 -892 0
-334 -891 892 0
222 -893 0
110 -893 0
-222 -110 893 0
-892 559 0
-893 559 0
892 893 -559 0
111 223 -894 0
-111 223 894 0
111 -223 894 0
-111 -223 -894 0
894 335 -447 0
-894 335 447 0
894 -335 447 0
-894 -335 -447 0
335 -895 0
894 -895 0
-335 -894 895 0
223 -896 0
111 -896 0
-223 -111 896 0
-895 560 0
-896 560 0
895 896 -560 0
112 224 -897 0
-112 224 897 0
112 -224 897 0
-112 -224 -897 0
897 336 -448 0
-897 336 448 0
897 -336 448 0
-897 -336 -448 0
336 -898 0
897 -898 0
-336 -897 898 0
224 -899 0
112 -899 0
-224 -112 899 0
-898 561 0
-899 561 0
898 899 -561 0
